benchmarks/crosswords/mzn/crossword3_59.ozn
output ([(((("\n"++problem_name)++"\n")++"L:")++show(L))++"\n"]++[if problem[i,j]==0 then "*" else show(letters[fix(L[problem[i,j]])]) endif++if j==cols then "\n" else "" endif | i in 1..rows, j in 1..cols, ])++["\n"];
int: rows = 7;
int: cols = 7;
array [1..rows,1..cols] of int: problem = [|1,2,3,0,4,5,6|7,8,9,0,10,11,12|13,14,15,16,17,18,19|0,0,20,0,21,0,0|22,23,24,25,26,27,28|29,30,31,0,32,33,34|35,36,37,0,38,39,40|];
int: num_letters = 26;
array [1..num_letters] of string: letters = ["a","b","c","d","e","f","g","h","i","j","k","l","m","n","o","p","q","r","s","t","u","v","w","x","y","z"];
int: N = 40;
array [0..N] of int: L;
string: problem_name = "puzzle10, 7 x 7";
