benchmarks/crosswords/mzn/crossword3_59.res
REGULAR
REGULAR
REGULAR
REGULAR
REGULAR
REGULAR
REGULAR
REGULAR
REGULAR
REGULAR
REGULAR
REGULAR
REGULAR
REGULAR
REGULAR
REGULAR
REGULAR
REGULAR
REGULAR
REGULAR
REGULAR
REGULAR
REGULAR
REGULAR
L = array1d(0..40, [1, 1, 4, 1, 14, 5, 4, 8, 1, 2, 1, 12, 1, 1, 2, 13, 9, 18, 1, 13, 21, 5, 14, 1, 3, 1, 8, 20, 9, 1, 14, 1, 5, 3, 1, 4, 9, 13, 20, 1, 13]);
----------

%%  runtime:       1.699 (1699.037 ms)
%%  solvetime:     0.004 (4.360 ms)
%%  solutions:     1
%%  variables:     665
%%  propagators:   920
%%  propagations:  4458
%%  nodes:         25
%%  failures:      0
%%  restarts:      0
%%  peak depth:    24

GECODE_TUPLESET_MEM
GECODE_TUPLESET_MEM
GECODE_TUPLESET_MEM
GECODE_TUPLESET_MEM
GECODE_TUPLESET_MEM
GECODE_TUPLESET_MEM
GECODE_TUPLESET_MEM
GECODE_TUPLESET_MEM
GECODE_TUPLESET_MEM
GECODE_TUPLESET_MEM
GECODE_TUPLESET_MEM
GECODE_TUPLESET_MEM
GECODE_TUPLESET_MEM
GECODE_TUPLESET_MEM
GECODE_TUPLESET_MEM
GECODE_TUPLESET_MEM
GECODE_TUPLESET_MEM
GECODE_TUPLESET_MEM
GECODE_TUPLESET_MEM
GECODE_TUPLESET_MEM
GECODE_TUPLESET_MEM
GECODE_TUPLESET_MEM
GECODE_TUPLESET_MEM
GECODE_TUPLESET_MEM
L = array1d(0..40, [1, 2, 1, 1, 3, 8, 5, 1, 4, 4, 8, 1, 12, 4, 1, 4, 1, 9, 19, 13, 5, 12, 6, 5, 14, 3, 5, 18, 19, 12, 1, 4, 1, 3, 5, 1, 18, 1, 14, 1, 14]);
----------

%%  runtime:       0.108 (108.149 ms)
%%  solvetime:     0.006 (6.170 ms)
%%  solutions:     1
%%  variables:     665
%%  propagators:   920
%%  propagations:  4635
%%  nodes:         27
%%  failures:      0
%%  restarts:      0
%%  peak depth:    26

GECODE_TUPLESET_SPEED
GECODE_TUPLESET_SPEED
GECODE_TUPLESET_SPEED
GECODE_TUPLESET_SPEED
GECODE_TUPLESET_SPEED
GECODE_TUPLESET_SPEED
GECODE_TUPLESET_SPEED
GECODE_TUPLESET_SPEED
GECODE_TUPLESET_SPEED
GECODE_TUPLESET_SPEED
GECODE_TUPLESET_SPEED
GECODE_TUPLESET_SPEED
GECODE_TUPLESET_SPEED
GECODE_TUPLESET_SPEED
GECODE_TUPLESET_SPEED
GECODE_TUPLESET_SPEED
GECODE_TUPLESET_SPEED
GECODE_TUPLESET_SPEED
GECODE_TUPLESET_SPEED
GECODE_TUPLESET_SPEED
GECODE_TUPLESET_SPEED
GECODE_TUPLESET_SPEED
GECODE_TUPLESET_SPEED
GECODE_TUPLESET_SPEED
L = array1d(0..40, [1, 2, 1, 1, 3, 8, 5, 1, 4, 4, 8, 1, 12, 4, 1, 4, 1, 9, 19, 13, 5, 12, 6, 5, 14, 3, 5, 18, 19, 12, 1, 4, 1, 3, 5, 1, 18, 1, 14, 1, 14]);
----------

%%  runtime:       0.109 (109.530 ms)
%%  solvetime:     0.007 (7.157 ms)
%%  solutions:     1
%%  variables:     665
%%  propagators:   920
%%  propagations:  4558
%%  nodes:         27
%%  failures:      0
%%  restarts:      0
%%  peak depth:    26

COMPACT_TABLE
COMPACT_TABLE
COMPACT_TABLE
COMPACT_TABLE
COMPACT_TABLE
COMPACT_TABLE
COMPACT_TABLE
COMPACT_TABLE
COMPACT_TABLE
COMPACT_TABLE
COMPACT_TABLE
COMPACT_TABLE
COMPACT_TABLE
COMPACT_TABLE
COMPACT_TABLE
COMPACT_TABLE
COMPACT_TABLE
COMPACT_TABLE
COMPACT_TABLE
COMPACT_TABLE
COMPACT_TABLE
COMPACT_TABLE
COMPACT_TABLE
COMPACT_TABLE
L = array1d(0..40, [1, 2, 1, 1, 3, 8, 5, 1, 4, 4, 8, 1, 12, 4, 1, 4, 1, 9, 19, 13, 5, 12, 6, 5, 14, 3, 5, 18, 19, 12, 1, 4, 1, 3, 5, 1, 18, 1, 14, 1, 14]);
----------

%%  runtime:       0.151 (151.209 ms)
%%  solvetime:     0.001 (1.714 ms)
%%  solutions:     1
%%  variables:     665
%%  propagators:   920
%%  propagations:  4566
%%  nodes:         27
%%  failures:      0
%%  restarts:      0
%%  peak depth:    26

